# Solution for model iteration_511_copy
# Objective value = 1.2699713620701732e+02
0 0
1 0.001
3 0.001
5 0.001
6 1.001
7 0.001
8 1.001
9 1.0019999999999998e+00
11 1.0019999999999998e+00
13 2.3713191092339763e+01
15 2.3111516900452784e+01
16 2.4111516900452784e+01
17 2.4852680106022706e+01
19 2.4112516900452786e+01
20 2.5112516900452786e+01
21 2.5113516900452787e+01
23 3.5592468136719361e+01
24 3.6592468136719361e+01
25 3.5435557437214676e+01
26 3.6435557437214676e+01
27 3.5592468136719361e+01
28 3.6592468136719361e+01
29 3.6593468136719359e+01
31 47.4253821841399
33 4.9531325922150096e+01
34 5.0531325922150096e+01
35 5.2453543584411207e+01
37 5.6843348835828195e+01
38 5.7843348835828195e+01
39 5.7844348835828193e+01
41 7.2370192201473628e+01
42 7.3370192201473628e+01
43 7.2097929147357490e+01
44 7.3097929147357490e+01
45 7.2305975830577466e+01
46 7.3305975830577466e+01
47 7.7132189400538593e+01
48 7.8132189400538593e+01
49 7.3371192201473633e+01
51 8.0054407062799683e+01
53 8.0887783447488928e+01
55 9.6086278133002310e+01
56 9.7086278133002310e+01
57 9.5921528324775622e+01
58 9.6921528324775622e+01
59 9.6075140529230154e+01
60 9.7075140529230154e+01
61 9.7087278133002314e+01
63 8.5891225556878112e+01
65 1.0459997453928908e+02
67 1.0959551737818447e+02
69 1.3151545038062199e+02
70 1.3251545038062199e+02
71 1.3151545038062199e+02
72 1.3251545038062199e+02
73 1.3344620889729561e+02
75 132.516450380622
77 1.2385059967722088e+02
79 1.5729690041640677e+02
81 1.4514991928209631e+02
82 1.4614991928209631e+02
83 1.4540580230608742e+02
84 1.4640580230608742e+02
85 1.4646433959709353e+02
87 1.7341075268001603e+02
88 1.7441075268001603e+02
89 170.83408541612
90 171.83408541612
91 1.7441175268001604e+02
93 1.6776365920196895e+02
94 1.6876365920196895e+02
95 1.6801954222596009e+02
96 1.6901954222596009e+02
97 1.8683801073179154e+02
99 1.6907807951696617e+02
101 2.0389650936357663e+02
103 1.7517983017771274e+02
104 1.7617983017771274e+02
105 1.7533562586388487e+02
106 1.7633562586388487e+02
107 1.7652901901813598e+02
109 2.0260707726078732e+02
110 2.0360707726078732e+02
111 2.2760870045537681e+02
113 2.0278699295849390e+02
114 2.0378699295849390e+02
115 2.2276041607472646e+02
117 2.0378799295849390e+02
119 2.5132089154717693e+02
121 2.2751377604005731e+02
122 2.2851377604005731e+02
123 2.2840396790311362e+02
124 2.2940396790311362e+02
125 2.2835651328840160e+02
126 2.2935651328840160e+02
127 2.4661110759383760e+02
129 227.032803929248
130 228.032803929248
131 2.2851477604005731e+02
132 2.2951477604005731e+02
133 2.2827638247007923e+02
134 2.2927638247007923e+02
135 2.2951577604005732e+02
137 2.8003850287187782e+02
139 2.8714284400783316e+02
141 2.7506472417323693e+02
142 2.7606472417323693e+02
143 2.7532058039211745e+02
144 2.7632058039211745e+02
145 2.7632158039211743e+02
147 3.1085503215530878e+02
149 3.0957961318726262e+02
151 2.5421325475935566e+02
152 2.5521325475935566e+02
153 2.5521425475935567e+02
155 3.3912072350264737e+02
157 3.4431743341865786e+02
159 2.9342183478674747e+02
161 3.4575571988086017e+02
162 3.4675571988086017e+02
163 3.4562231372403653e+02
164 3.4662231372403653e+02
165 3.4575571988086017e+02
166 3.4675571988086017e+02
167 3.8417836969279489e+02
168 3.8517836969279489e+02
169 3.8553774901682391e+02
170 3.8653774901682391e+02
171 3.5508748198161032e+02
173 3.8517936969279486e+02
175 3.8653874901682389e+02
177 3.7983302935033470e+02
178 3.8083302935033470e+02
179 381.041820723372
181 3.4675671988086015e+02
182 3.4775671988086015e+02
183 3.4662331372403651e+02
184 3.4762331372403651e+02
185 3.4675671988086015e+02
186 3.4775671988086015e+02
187 4.2000113620701734e+02
188 4.2100113620701734e+02
189 3.4775771988086012e+02
191 4.2000113620701734e+02
192 4.2100113620701734e+02
193 4.1959692251766728e+02
194 4.2059692251766728e+02
195 4.0122213497476270e+02
196 4.0222213497476270e+02
197 4.0222313497476267e+02
199 4.2000113620701734e+02
200 4.2100113620701734e+02
201 4.1989966511925468e+02
202 4.2089966511925468e+02
203 4.2100213620701732e+02
c(0,203)_ru 1.2699713620701732e+02
lambda[0] 0
lambda[1] 0
lambda[2] 0
lambda[3] 0
lambda[4] 0
lambda[5] 0
lambda[6] 0
lambda[7] 0
lambda[8] 0
lambda[9] 0
lambda[10] 0
lambda[11] 0
lambda[12] 0
lambda[13] 0
lambda[14] 0
lambda[15] 0
lambda[16] 0
lambda[17] 0
lambda[18] 0
lambda[19] 0
lambda[20] 0
lambda[21] 0
lambda[22] 0
lambda[23] 0
lambda[24] 0
lambda[25] 0
lambda[26] 0
lambda[27] 0
lambda[28] 0
lambda[29] 0
lambda[30] 0
lambda[31] 0
lambda[32] 0
lambda[33] 0
lambda[34] 0
lambda[35] 0
lambda[36] 0
lambda[37] 0
lambda[38] 0
lambda[39] 0
lambda[40] 0
lambda[41] 0
lambda[42] 0
lambda[43] 0
lambda[44] 0
lambda[45] 0
lambda[46] 0
lambda[47] 0
lambda[48] 0
lambda[49] 0
lambda[50] 0
lambda[51] 0
lambda[52] 0
lambda[53] 0
lambda[54] 0
lambda[55] 0
lambda[56] 0
lambda[57] 0
lambda[58] 0
lambda[59] 0
lambda[60] 0
lambda[61] 0
lambda[62] 0
lambda[63] 0
lambda[64] 0
lambda[65] 0
lambda[66] 0
lambda[67] 0
lambda[68] 0
lambda[69] 0
lambda[70] 0
lambda[71] 0
lambda[72] 0
lambda[73] 0
lambda[74] 0
lambda[75] 0
lambda[76] 0
lambda[77] 0
lambda[78] 0
lambda[79] 0
lambda[80] 0
lambda[81] 0
lambda[82] 0
lambda[83] 0
lambda[84] 0
lambda[85] 0
lambda[86] 0
lambda[87] 0
lambda[88] 0
lambda[89] 0
lambda[90] 0
lambda[91] 0
lambda[92] 0
lambda[93] 0
lambda[94] 0
lambda[95] 0
lambda[96] 0
lambda[97] 0
lambda[98] 0
lambda[99] 0
lambda[100] 0
lambda[101] 0
lambda[102] 0
lambda[103] 0
lambda[104] 0
lambda[105] 0
lambda[106] 0
lambda[107] 0
lambda[108] 0
lambda[109] 0
lambda[110] 0
lambda[111] 0
lambda[112] 0
lambda[113] 0
lambda[114] 0
lambda[115] 0
lambda[116] 0
lambda[117] 0
lambda[118] 0
lambda[119] 0
lambda[120] 0
lambda[121] 0
lambda[122] 0
lambda[123] 0
lambda[124] 0
lambda[125] 0
lambda[126] 0
lambda[127] 0
lambda[128] 0
lambda[129] 0
lambda[130] 0
lambda[131] 0
lambda[132] 0
lambda[133] 0
lambda[134] 0
lambda[135] 0
lambda[136] 0
lambda[137] 0
lambda[138] 0
lambda[139] 0
lambda[140] 0
lambda[141] 0
lambda[142] 0
lambda[143] 0
lambda[144] 0
lambda[145] 0
lambda[146] 0
lambda[147] 0
lambda[148] 0
lambda[149] 0
lambda[150] 0
lambda[151] 0
lambda[152] 0
lambda[153] 0
lambda[154] 0
lambda[155] 0
lambda[156] 0
lambda[157] 0
lambda[158] 0
lambda[159] 0
lambda[160] 0
lambda[161] 0
lambda[162] 0
lambda[163] 0
lambda[164] 0
lambda[165] 0
lambda[166] 0
lambda[167] 0
lambda[168] 0
lambda[169] 0
lambda[170] 0
lambda[171] 0
lambda[172] 0
lambda[173] 0
lambda[174] 0
lambda[175] 0
lambda[176] 0
lambda[177] 0
lambda[178] 0
lambda[179] 0
lambda[180] 0
lambda[181] 0
lambda[182] 0
lambda[183] 0
lambda[184] 0
lambda[185] 0
lambda[186] 0
lambda[187] 0
lambda[188] 0
lambda[189] 0
lambda[190] 0
lambda[191] 0
lambda[192] 0
lambda[193] 0
lambda[194] 0
lambda[195] 0
lambda[196] 0
lambda[197] 0
lambda[198] 0
lambda[199] 0
lambda[200] 0
lambda[201] 0
lambda[202] 0
lambda[203] 0
lambda[204] 0
lambda[205] 0
lambda[206] 0
lambda[207] 0
lambda[208] 0
lambda[209] 0
lambda[210] 0
lambda[211] 0
lambda[212] 0
lambda[213] 0
lambda[214] 0
lambda[215] 0
lambda[216] 0
lambda[217] 0
lambda[218] 0
lambda[219] 0
lambda[220] 0
lambda[221] 0
lambda[222] 0
lambda[223] 0
lambda[224] 0
lambda[225] 0
lambda[226] 0
lambda[227] 0
lambda[228] 0
lambda[229] 0
lambda[230] 0
lambda[231] 0
lambda[232] 0
lambda[233] 0
lambda[234] 0
lambda[235] 0
lambda[236] 0
lambda[237] 0
lambda[238] 0
lambda[239] 0
lambda[240] 0
lambda[241] 0
lambda[242] 0
lambda[243] 0
lambda[244] 0
lambda[245] 0
lambda[246] 0
lambda[247] 0
lambda[248] 0
lambda[249] 0
lambda[250] 0
lambda[251] 0
lambda[252] 0
lambda[253] 0
lambda[254] 0
lambda[255] 0
lambda[256] 0
lambda[257] 0
lambda[258] 0
lambda[259] 0
lambda[260] 0
lambda[261] 0
lambda[262] 0
lambda[263] 0
lambda[264] 0
lambda[265] 0
lambda[266] 0
lambda[267] 0
lambda[268] 0
lambda[269] 0
lambda[270] 0
lambda[271] 0
lambda[272] 0
lambda[273] 0
lambda[274] 0
lambda[275] 0
lambda[276] 0
lambda[277] 0
lambda[278] 0
lambda[279] 0
lambda[280] 0
lambda[281] 0
lambda[282] 0
lambda[283] 0
lambda[284] 0
lambda[285] 0
lambda[286] 0
lambda[287] 0
lambda[288] 0
lambda[289] 0
lambda[290] 0
lambda[291] 0
lambda[292] 0
lambda[293] 0
lambda[294] 0
lambda[295] 0
lambda[296] 0
lambda[297] 0
lambda[298] 0
lambda[299] 0
lambda[300] 0
lambda[301] 0
lambda[302] 0
lambda[303] 0
lambda[304] 0
lambda[305] 0
lambda[306] 0
lambda[307] 0
lambda[308] 0
lambda[309] 0
lambda[310] 0
lambda[311] 0
lambda[312] 0
lambda[313] 0
lambda[314] 0
lambda[315] 0
lambda[316] 0
lambda[317] 0
lambda[318] 0
lambda[319] 0
lambda[320] 0
lambda[321] 0
lambda[322] 0
lambda[323] 0
lambda[324] 0
lambda[325] 0
lambda[326] 0
lambda[327] 0
lambda[328] 0
lambda[329] 0
lambda[330] 0
lambda[331] 0
lambda[332] 0
lambda[333] 0
lambda[334] 0
lambda[335] 0
lambda[336] 0
lambda[337] 0
lambda[338] 0
lambda[339] 0
lambda[340] 0
lambda[341] 0
lambda[342] 0
lambda[343] 0
lambda[344] 0
lambda[345] 0
lambda[346] 0
lambda[347] 0
lambda[348] 0
lambda[349] 0
lambda[350] 0
lambda[351] 0
lambda[352] 0
lambda[353] 0
lambda[354] 0
lambda[355] 0
lambda[356] 0
lambda[357] 0
lambda[358] 0
lambda[359] 0
lambda[360] 0
lambda[361] 0
lambda[362] 0
lambda[363] 0
lambda[364] 0
lambda[365] 0
lambda[366] 0
lambda[367] 0
lambda[368] 0
lambda[369] 0
lambda[370] 0
lambda[371] 0
lambda[372] 0
lambda[373] 0
lambda[374] 0
lambda[375] 0
lambda[376] 0
lambda[377] 0
lambda[378] 0
lambda[379] 0
lambda[380] 0
lambda[381] 0
lambda[382] 0
lambda[383] 0
lambda[384] 0
lambda[385] 0
lambda[386] 0
lambda[387] 0
lambda[388] 0
lambda[389] 0
lambda[390] 0
lambda[391] 0
lambda[392] 0
lambda[393] 0
lambda[394] 0
lambda[395] 0
lambda[396] 0
lambda[397] 0
lambda[398] 0
lambda[399] 0
lambda[400] 0
lambda[401] 0
lambda[402] 0
lambda[403] 0
lambda[404] 0
lambda[405] 0
lambda[406] 0
lambda[407] 0
lambda[408] 0
lambda[409] 0
lambda[410] 0
lambda[411] 0
lambda[412] 0
lambda[413] 0
lambda[414] 0
lambda[415] 0
lambda[416] 0
lambda[417] 0
lambda[418] 0
lambda[419] 0
lambda[420] 0
lambda[421] 0
lambda[422] 0
lambda[423] 0
lambda[424] 0
lambda[425] 0
lambda[426] 0
lambda[427] 0
lambda[428] 0
lambda[429] 0
lambda[430] 0
lambda[431] 0
lambda[432] 0
lambda[433] 0
lambda[434] 0
lambda[435] 0
lambda[436] 0
lambda[437] 0
lambda[438] 0
lambda[439] 0
lambda[440] 0
lambda[441] 0
lambda[442] 0
lambda[443] 0
lambda[444] 0
lambda[445] 0
lambda[446] 0
lambda[447] 0
lambda[448] 0
lambda[449] 0
lambda[450] 0
lambda[451] 0
lambda[452] 0
lambda[453] 0
lambda[454] 0
lambda[455] 2.0986320864267789e-03
lambda[456] 0
lambda[457] 0
lambda[458] 0
lambda[459] 0
lambda[460] 0
lambda[461] 0
lambda[462] 0
lambda[463] 0
lambda[464] 0
lambda[465] 0
lambda[466] 0
lambda[467] 0
lambda[468] 0
lambda[469] 0
lambda[470] 0
lambda[471] 0
lambda[472] 0
lambda[473] 0
lambda[474] 0
lambda[475] 0
lambda[476] 0
lambda[477] 0
lambda[478] 0
lambda[479] 0
lambda[480] 0
lambda[481] 0
lambda[482] 0
lambda[483] 0
lambda[484] 0
lambda[485] 0
lambda[486] 0
lambda[487] 0
lambda[488] 1.1115251511819940e-02
lambda[489] 0
lambda[490] 0
lambda[491] 0
lambda[492] 0
lambda[493] 1.3341373229296556e-02
lambda[494] 0
lambda[495] 0
lambda[496] 0
lambda[497] 0
lambda[498] 0
lambda[499] 0
lambda[500] 0
lambda[501] 0
lambda[502] 0
lambda[503] 0
lambda[504] 1.9585645314769154e-02
lambda[505] 9.2381264984556388e-01
lambda[506] 0
lambda[507] 0
lambda[508] 0
lambda[509] 0
lambda[510] 3.0046448012123805e-02
phi[0] 5.1082562376599094e-01
